20
1 0 1
2 0 4
2 1 1
3 0 4
3 1 5
3 2 4
4 0 2
4 1 5
4 2 6
4 3 1
5 0 6
5 1 5
5 2 5
5 3 2
5 4 6
6 0 5
6 1 6
6 2 4
6 3 2
6 4 2
6 5 4
7 0 2
7 1 2
7 2 6
7 3 3
7 4 3
7 5 1
7 6 2
8 0 2
8 1 2
8 2 2
8 3 2
8 4 3
8 5 2
8 6 6
8 7 5
9 0 2
9 1 6
9 2 1
9 3 3
9 4 4
9 5 6
9 6 5
9 7 2
9 8 3
10 0 6
10 1 3
10 2 4
10 3 5
10 4 1
10 5 3
10 6 1
10 7 6
10 8 2
10 9 4
11 0 5
11 1 4
11 2 6
11 3 1
11 4 4
11 5 1
11 6 1
11 7 1
11 8 3
11 9 3
11 10 4
12 0 4
12 1 6
12 2 4
12 3 3
12 4 1
12 5 4
12 6 2
12 7 1
12 8 2
12 9 5
12 10 6
12 11 3
13 0 3
13 1 3
13 2 3
13 3 6
13 4 3
13 5 5
13 6 4
13 7 1
13 8 2
13 9 2
13 10 3
13 11 6
13 12 1
14 0 6
14 1 6
14 2 4
14 3 6
14 4 5
14 5 2
14 6 5
14 7 1
14 8 6
14 9 2
14 10 3
14 11 3
14 12 4
14 13 3
15 0 6
15 1 3
15 2 1
15 3 1
15 4 4
15 5 4
15 6 2
15 7 3
15 8 1
15 9 1
15 10 5
15 11 4
15 12 4
15 13 4
15 14 1
16 0 1
16 1 4
16 2 5
16 3 1
16 4 1
16 5 2
16 6 2
16 7 6
16 8 5
16 9 5
16 10 4
16 11 2
16 12 6
16 13 4
16 14 3
16 15 5
17 0 4
17 1 1
17 2 1
17 3 6
17 4 3
17 5 1
17 6 6
17 7 4
17 8 5
17 9 6
17 10 4
17 11 4
17 12 4
17 13 3
17 14 3
17 15 4
17 16 1
18 0 6
18 1 4
18 2 2
18 3 5
18 4 5
18 5 4
18 6 1
18 7 2
18 8 5
18 9 2
18 10 2
18 11 2
18 12 3
18 13 3
18 14 4
18 15 3
18 16 3
18 17 2
19 0 1
19 1 4
19 2 5
19 3 6
19 4 2
19 5 5
19 6 6
19 7 4
19 8 5
19 9 5
19 10 4
19 11 1
19 12 6
19 13 3
19 14 1
19 15 6
19 16 6
19 17 4
19 18 6
